50
1 0 84
2 0 15
2 1 61
3 0 16
3 1 17
3 2 13
4 0 89
4 1 4
4 2 63
4 3 7
5 0 91
5 1 57
5 2 5
5 3 2
5 4 25
6 0 32
6 1 33
6 2 93
6 3 81
6 4 51
6 5 17
7 0 48
7 1 16
7 2 83
7 3 8
7 4 42
7 5 47
7 6 45
8 0 82
8 1 36
8 2 12
8 3 22
8 4 95
8 5 47
8 6 12
8 7 82
9 0 20
9 1 69
9 2 72
9 3 20
9 4 76
9 5 31
9 6 95
9 7 84
9 8 78
10 0 100
10 1 97
10 2 43
10 3 65
10 4 76
10 5 46
10 6 11
10 7 82
10 8 21
10 9 40
11 0 44
11 1 22
11 2 28
11 3 96
11 4 54
11 5 62
11 6 35
11 7 45
11 8 25
11 9 44
11 10 12
12 0 44
12 1 16
12 2 82
12 3 90
12 4 57
12 5 92
12 6 2
12 7 26
12 8 57
12 9 17
12 10 40
12 11 93
13 0 64
13 1 84
13 2 63
13 3 56
13 4 16
13 5 95
13 6 79
13 7 78
13 8 20
13 9 97
13 10 55
13 11 52
13 12 68
14 0 30
14 1 64
14 2 68
14 3 81
14 4 70
14 5 19
14 6 41
14 7 26
14 8 51
14 9 75
14 10 84
14 11 32
14 12 90
14 13 3
15 0 91
15 1 76
15 2 85
15 3 63
15 4 48
15 5 36
15 6 33
15 7 41
15 8 15
15 9 28
15 10 82
15 11 18
15 12 31
15 13 58
15 14 38
16 0 79
16 1 32
16 2 78
16 3 75
16 4 5
16 5 98
16 6 16
16 7 20
16 8 81
16 9 55
16 10 16
16 11 20
16 12 16
16 13 1
16 14 14
16 15 100
17 0 82
17 1 46
17 2 37
17 3 78
17 4 81
17 5 61
17 6 96
17 7 94
17 8 27
17 9 97
17 10 8
17 11 70
17 12 94
17 13 5
17 14 80
17 15 6
17 16 51
18 0 78
18 1 28
18 2 75
18 3 11
18 4 90
18 5 19
18 6 82
18 7 47
18 8 3
18 9 52
18 10 97
18 11 54
18 12 76
18 13 36
18 14 69
18 15 73
18 16 75
18 17 5
19 0 86
19 1 84
19 2 98
19 3 92
19 4 40
19 5 52
19 6 42
19 7 57
19 8 19
19 9 83
19 10 80
19 11 24
19 12 16
19 13 6
19 14 33
19 15 94
19 16 35
19 17 10
19 18 44
20 0 15
20 1 54
20 2 86
20 3 4
20 4 46
20 5 38
20 6 63
20 7 67
20 8 38
20 9 42
20 10 35
20 11 68
20 12 13
20 13 40
20 14 10
20 15 33
20 16 28
20 17 53
20 18 43
20 19 32
21 0 42
21 1 89
21 2 29
21 3 30
21 4 32
21 5 1
21 6 47
21 7 17
21 8 14
21 9 24
21 10 21
21 11 44
21 12 84
21 13 62
21 14 8
21 15 86
21 16 70
21 17 19
21 18 30
21 19 99
21 20 59
22 0 3
22 1 38
22 2 59
22 3 53
22 4 56
22 5 33
22 6 90
22 7 53
22 8 65
22 9 16
22 10 28
22 11 89
22 12 84
22 13 36
22 14 63
22 15 36
22 16 56
22 17 36
22 18 64
22 19 82
22 20 12
22 21 46
23 0 92
23 1 43
23 2 4
23 3 52
23 4 30
23 5 49
23 6 80
23 7 49
23 8 3
23 9 28
23 10 16
23 11 58
23 12 68
23 13 68
23 14 68
23 15 56
23 16 86
23 17 53
23 18 98
23 19 60
23 20 12
23 21 71
23 22 90
24 0 59
24 1 65
24 2 58
24 3 76
24 4 85
24 5 66
24 6 38
24 7 11
24 8 61
24 9 52
24 10 45
24 11 87
24 12 83
24 13 4
24 14 52
24 15 63
24 16 9
24 17 52
24 18 51
24 19 67
24 20 66
24 21 41
24 22 44
24 23 78
25 0 100
25 1 68
25 2 43
25 3 4
25 4 33
25 5 28
25 6 99
25 7 16
25 8 95
25 9 39
25 10 90
25 11 96
25 12 45
25 13 10
25 14 59
25 15 19
25 16 6
25 17 89
25 18 62
25 19 68
25 20 76
25 21 12
25 22 81
25 23 56
25 24 86
26 0 12
26 1 7
26 2 100
26 3 15
26 4 93
26 5 95
26 6 89
26 7 95
26 8 54
26 9 54
26 10 7
26 11 51
26 12 22
26 13 14
26 14 36
26 15 71
26 16 43
26 17 93
26 18 33
26 19 97
26 20 20
26 21 46
26 22 57
26 23 73
26 24 12
26 25 82
27 0 100
27 1 8
27 2 28
27 3 63
27 4 29
27 5 31
27 6 73
27 7 35
27 8 66
27 9 38
27 10 44
27 11 59
27 12 49
27 13 70
27 14 78
27 15 25
27 16 45
27 17 77
27 18 83
27 19 76
27 20 28
27 21 37
27 22 34
27 23 81
27 24 27
27 25 44
27 26 99
28 0 22
28 1 10
28 2 1
28 3 11
28 4 96
28 5 63
28 6 53
28 7 40
28 8 40
28 9 77
28 10 66
28 11 92
28 12 24
28 13 55
28 14 31
28 15 64
28 16 87
28 17 92
28 18 46
28 19 23
28 20 96
28 21 7
28 22 16
28 23 82
28 24 58
28 25 17
28 26 56
28 27 9
29 0 17
29 1 82
29 2 2
29 3 68
29 4 13
29 5 70
29 6 64
29 7 2
29 8 88
29 9 15
29 10 68
29 11 89
29 12 60
29 13 64
29 14 69
29 15 39
29 16 8
29 17 41
29 18 50
29 19 11
29 20 34
29 21 78
29 22 24
29 23 71
29 24 96
29 25 75
29 26 100
29 27 17
29 28 31
30 0 11
30 1 94
30 2 42
30 3 2
30 4 2
30 5 88
30 6 9
30 7 49
30 8 74
30 9 64
30 10 64
30 11 30
30 12 24
30 13 84
30 14 13
30 15 68
30 16 56
30 17 67
30 18 30
30 19 51
30 20 23
30 21 97
30 22 72
30 23 47
30 24 31
30 25 77
30 26 34
30 27 34
30 28 66
30 29 84
31 0 48
31 1 60
31 2 48
31 3 14
31 4 28
31 5 63
31 6 38
31 7 11
31 8 1
31 9 45
31 10 47
31 11 18
31 12 79
31 13 66
31 14 16
31 15 100
31 16 82
31 17 95
31 18 68
31 19 28
31 20 72
31 21 41
31 22 62
31 23 14
31 24 7
31 25 59
31 26 85
31 27 39
31 28 1
31 29 91
31 30 71
32 0 32
32 1 42
32 2 90
32 3 29
32 4 62
32 5 21
32 6 46
32 7 25
32 8 68
32 9 64
32 10 97
32 11 40
32 12 50
32 13 79
32 14 10
32 15 7
32 16 70
32 17 42
32 18 49
32 19 3
32 20 50
32 21 3
32 22 82
32 23 27
32 24 70
32 25 83
32 26 79
32 27 21
32 28 99
32 29 78
32 30 8
32 31 97
33 0 11
33 1 10
33 2 42
33 3 68
33 4 57
33 5 77
33 6 9
33 7 23
33 8 25
33 9 2
33 10 75
33 11 73
33 12 85
33 13 78
33 14 31
33 15 54
33 16 95
33 17 56
33 18 9
33 19 91
33 20 49
33 21 32
33 22 80
33 23 31
33 24 54
33 25 20
33 26 81
33 27 7
33 28 88
33 29 26
33 30 80
33 31 5
33 32 78
34 0 52
34 1 97
34 2 23
34 3 89
34 4 95
34 5 6
34 6 60
34 7 17
34 8 38
34 9 6
34 10 74
34 11 33
34 12 19
34 13 45
34 14 86
34 15 15
34 16 44
34 17 11
34 18 31
34 19 57
34 20 80
34 21 38
34 22 73
34 23 68
34 24 32
34 25 95
34 26 42
34 27 71
34 28 4
34 29 44
34 30 56
34 31 77
34 32 92
34 33 94
35 0 44
35 1 1
35 2 53
35 3 84
35 4 68
35 5 33
35 6 57
35 7 70
35 8 20
35 9 88
35 10 12
35 11 8
35 12 51
35 13 95
35 14 24
35 15 39
35 16 32
35 17 4
35 18 22
35 19 44
35 20 81
35 21 11
35 22 62
35 23 100
35 24 92
35 25 39
35 26 9
35 27 71
35 28 46
35 29 22
35 30 26
35 31 15
35 32 9
35 33 85
35 34 55
36 0 71
36 1 27
36 2 7
36 3 48
36 4 92
36 5 80
36 6 9
36 7 75
36 8 3
36 9 54
36 10 23
36 11 51
36 12 21
36 13 53
36 14 16
36 15 24
36 16 62
36 17 50
36 18 77
36 19 30
36 20 11
36 21 35
36 22 96
36 23 13
36 24 55
36 25 47
36 26 93
36 27 55
36 28 76
36 29 66
36 30 72
36 31 67
36 32 66
36 33 7
36 34 13
36 35 44
37 0 26
37 1 50
37 2 20
37 3 74
37 4 35
37 5 98
37 6 94
37 7 58
37 8 14
37 9 44
37 10 100
37 11 86
37 12 24
37 13 80
37 14 40
37 15 66
37 16 73
37 17 99
37 18 55
37 19 12
37 20 7
37 21 52
37 22 23
37 23 30
37 24 22
37 25 77
37 26 19
37 27 59
37 28 31
37 29 4
37 30 49
37 31 61
37 32 54
37 33 100
37 34 93
37 35 65
37 36 16
38 0 24
38 1 3
38 2 100
38 3 94
38 4 83
38 5 38
38 6 84
38 7 21
38 8 25
38 9 46
38 10 58
38 11 49
38 12 5
38 13 24
38 14 59
38 15 41
38 16 14
38 17 94
38 18 92
38 19 12
38 20 52
38 21 4
38 22 46
38 23 81
38 24 84
38 25 34
38 26 42
38 27 68
38 28 11
38 29 45
38 30 34
38 31 62
38 32 54
38 33 37
38 34 89
38 35 53
38 36 25
38 37 75
39 0 8
39 1 90
39 2 24
39 3 8
39 4 86
39 5 12
39 6 3
39 7 98
39 8 6
39 9 68
39 10 81
39 11 20
39 12 13
39 13 16
39 14 96
39 15 15
39 16 29
39 17 75
39 18 23
39 19 93
39 20 93
39 21 70
39 22 15
39 23 23
39 24 38
39 25 77
39 26 29
39 27 64
39 28 40
39 29 83
39 30 35
39 31 15
39 32 4
39 33 7
39 34 49
39 35 90
39 36 70
39 37 36
39 38 20
40 0 50
40 1 49
40 2 86
40 3 47
40 4 44
40 5 34
40 6 98
40 7 44
40 8 40
40 9 34
40 10 6
40 11 47
40 12 54
40 13 27
40 14 53
40 15 40
40 16 99
40 17 43
40 18 48
40 19 49
40 20 24
40 21 8
40 22 71
40 23 30
40 24 3
40 25 14
40 26 80
40 27 42
40 28 1
40 29 1
40 30 84
40 31 91
40 32 22
40 33 63
40 34 70
40 35 82
40 36 26
40 37 9
40 38 13
40 39 7
41 0 59
41 1 54
41 2 90
41 3 75
41 4 31
41 5 3
41 6 99
41 7 44
41 8 57
41 9 69
41 10 37
41 11 19
41 12 19
41 13 30
41 14 87
41 15 22
41 16 25
41 17 17
41 18 35
41 19 56
41 20 85
41 21 92
41 22 2
41 23 10
41 24 15
41 25 45
41 26 64
41 27 81
41 28 33
41 29 45
41 30 93
41 31 8
41 32 31
41 33 90
41 34 63
41 35 54
41 36 21
41 37 70
41 38 67
41 39 61
41 40 87
42 0 28
42 1 67
42 2 82
42 3 4
42 4 67
42 5 75
42 6 58
42 7 90
42 8 71
42 9 10
42 10 96
42 11 15
42 12 11
42 13 9
42 14 63
42 15 80
42 16 58
42 17 67
42 18 98
42 19 32
42 20 39
42 21 44
42 22 28
42 23 91
42 24 90
42 25 63
42 26 6
42 27 91
42 28 2
42 29 81
42 30 41
42 31 74
42 32 64
42 33 14
42 34 65
42 35 79
42 36 40
42 37 44
42 38 60
42 39 27
42 40 49
42 41 44
43 0 60
43 1 76
43 2 24
43 3 85
43 4 71
43 5 7
43 6 63
43 7 32
43 8 94
43 9 79
43 10 23
43 11 28
43 12 39
43 13 36
43 14 90
43 15 27
43 16 67
43 17 72
43 18 43
43 19 25
43 20 88
43 21 86
43 22 95
43 23 100
43 24 19
43 25 79
43 26 76
43 27 62
43 28 64
43 29 74
43 30 86
43 31 69
43 32 78
43 33 63
43 34 37
43 35 66
43 36 31
43 37 18
43 38 71
43 39 48
43 40 68
43 41 8
43 42 5
44 0 61
44 1 53
44 2 14
44 3 58
44 4 78
44 5 22
44 6 44
44 7 45
44 8 33
44 9 3
44 10 72
44 11 55
44 12 82
44 13 57
44 14 63
44 15 46
44 16 40
44 17 64
44 18 66
44 19 15
44 20 98
44 21 56
44 22 69
44 23 36
44 24 28
44 25 58
44 26 58
44 27 72
44 28 36
44 29 8
44 30 26
44 31 4
44 32 99
44 33 55
44 34 22
44 35 27
44 36 19
44 37 55
44 38 34
44 39 11
44 40 75
44 41 21
44 42 43
44 43 31
45 0 43
45 1 98
45 2 5
45 3 7
45 4 26
45 5 50
45 6 29
45 7 10
45 8 19
45 9 13
45 10 74
45 11 25
45 12 86
45 13 22
45 14 81
45 15 85
45 16 38
45 17 24
45 18 99
45 19 97
45 20 31
45 21 50
45 22 87
45 23 45
45 24 20
45 25 82
45 26 99
45 27 35
45 28 55
45 29 59
45 30 72
45 31 6
45 32 81
45 33 4
45 34 87
45 35 39
45 36 98
45 37 50
45 38 68
45 39 23
45 40 83
45 41 23
45 42 37
45 43 72
45 44 77
46 0 92
46 1 47
46 2 93
46 3 8
46 4 91
46 5 45
46 6 56
46 7 69
46 8 99
46 9 65
46 10 8
46 11 12
46 12 95
46 13 22
46 14 40
46 15 94
46 16 49
46 17 76
46 18 99
46 19 2
46 20 24
46 21 87
46 22 90
46 23 50
46 24 70
46 25 60
46 26 31
46 27 96
46 28 56
46 29 88
46 30 43
46 31 57
46 32 74
46 33 7
46 34 87
46 35 100
46 36 92
46 37 26
46 38 89
46 39 40
46 40 64
46 41 26
46 42 5
46 43 72
46 44 2
46 45 3
47 0 24
47 1 26
47 2 82
47 3 15
47 4 7
47 5 10
47 6 34
47 7 71
47 8 15
47 9 87
47 10 35
47 11 43
47 12 70
47 13 10
47 14 20
47 15 17
47 16 47
47 17 85
47 18 54
47 19 97
47 20 3
47 21 64
47 22 54
47 23 35
47 24 82
47 25 72
47 26 43
47 27 48
47 28 57
47 29 24
47 30 70
47 31 44
47 32 93
47 33 87
47 34 49
47 35 75
47 36 42
47 37 95
47 38 74
47 39 83
47 40 16
47 41 12
47 42 28
47 43 7
47 44 82
47 45 12
47 46 97
48 0 63
48 1 78
48 2 21
48 3 39
48 4 30
48 5 67
48 6 32
48 7 94
48 8 90
48 9 40
48 10 91
48 11 15
48 12 7
48 13 58
48 14 17
48 15 59
48 16 45
48 17 9
48 18 6
48 19 79
48 20 63
48 21 77
48 22 29
48 23 94
48 24 37
48 25 83
48 26 18
48 27 34
48 28 84
48 29 47
48 30 14
48 31 88
48 32 8
48 33 51
48 34 10
48 35 92
48 36 81
48 37 32
48 38 10
48 39 53
48 40 22
48 41 23
48 42 7
48 43 80
48 44 65
48 45 16
48 46 25
48 47 70
49 0 93
49 1 28
49 2 94
49 3 84
49 4 99
49 5 81
49 6 50
49 7 91
49 8 5
49 9 36
49 10 81
49 11 79
49 12 42
49 13 34
49 14 49
49 15 53
49 16 68
49 17 45
49 18 77
49 19 81
49 20 82
49 21 20
49 22 69
49 23 43
49 24 68
49 25 92
49 26 6
49 27 98
49 28 65
49 29 90
49 30 34
49 31 81
49 32 53
49 33 37
49 34 35
49 35 96
49 36 100
49 37 65
49 38 60
49 39 52
49 40 10
49 41 62
49 42 46
49 43 67
49 44 69
49 45 33
49 46 55
49 47 50
49 48 78
